NAME : E076-14s.1021.tour
COMMENT : Cost = 0_1021
COMMENT : Found by LKH [Keld Helsgaun] Sun May  7 02:12:18 2017
TYPE : TOUR
DIMENSION : 89
TOUR_SECTION
1
31
49
48
22
75
79
27
40
10
41
87
8
12
67
66
89
64
24
57
42
44
2
74
81
20
55
14
58
16
6
30
88
46
28
53
9
47
85
63
43
65
23
29
83
7
52
34
3
69
80
33
51
19
56
26
13
86
59
39
11
32
73
84
36
15
60
54
82
18
45
4
25
50
17
78
62
70
37
72
61
71
21
38
77
68
35
5
76
-1
EOF
